52 18 84 60 89 
40 53 
45 83 99 94 
62 11 90 32 70 
12 54 24 80 
21 73 26 
65 71 66 1 
14 44 38 96 
95 87 97 13 
30 51 9 20 
63 64 49 48 
92 42 15 57 43 91 100 
27 69 76 79 3 68 
36 47 19 10 
39 23 67 55 25 
5 61 85 37 93 
2 41 56 4 
28 29 78 34 35 77 
82 7 8 46 
31 88 6 
33 81 50 
72 75 22 74 58 
59 98 16 86 17 
